NAME : eil51.529700.tour
COMMENT : Cost = 0_529700
COMMENT : Found by LKH [Keld Helsgaun] Thu Nov 16 19:11:12 2017
TYPE : TOUR
DIMENSION : 55
TOUR_SECTION
1
22
20
35
36
3
28
31
55
46
12
17
37
44
15
45
33
39
10
49
5
54
8
26
7
43
24
23
48
27
52
51
47
18
4
42
19
40
41
13
25
14
6
53
2
29
21
16
50
34
30
9
38
11
32
-1
EOF
